; DUP1 DUP2 PUSH cw_1 SSTORE POP POP => PUSH cw_1 SSTORE
(set-option :produce-proofs true)
; 
(set-info :status unknown)
(declare-fun storage_t ((_ BitVec 256) (_ BitVec 256) (_ BitVec 256) Int (_ BitVec 256)) (_ BitVec 256))
(declare-fun w_1 () (_ BitVec 256))
(declare-fun storage_s ((_ BitVec 256) (_ BitVec 256) (_ BitVec 256) Int (_ BitVec 256)) (_ BitVec 256))
(declare-fun exc_halt_t (Int) Bool)
(declare-fun exc_halt_s (Int) Bool)
(declare-fun stack_t ((_ BitVec 256) (_ BitVec 256) (_ BitVec 256) Int (_ BitVec 6)) (_ BitVec 256))
(declare-fun stack_s ((_ BitVec 256) (_ BitVec 256) (_ BitVec 256) Int (_ BitVec 6)) (_ BitVec 256))
(declare-fun sc_t (Int) (_ BitVec 6))
(declare-fun sc_s (Int) (_ BitVec 6))
(declare-fun used_gas_t ((_ BitVec 256) (_ BitVec 256) (_ BitVec 256) Int) Int)
(declare-fun used_gas_s ((_ BitVec 256) (_ BitVec 256) (_ BitVec 256) Int) Int)
(assert
 (exists ((x_0 (_ BitVec 256)) (x_SSTORE_0 (_ BitVec 256)) )(let (($x8476 (forall ((w (_ BitVec 256)) )(let ((?x1744 (storage_t x_0 x_SSTORE_0 w_1 2 w)))
 (let ((?x7383 (storage_s x_0 x_SSTORE_0 w_1 6 w)))
 (= ?x7383 ?x1744))))
 ))
 (let (($x903 (exc_halt_t 2)))
 (let (($x772 (exc_halt_s 6)))
 (let (($x8576 (= $x772 $x903)))
 (let (($x3903 (forall ((n (_ BitVec 6)) )(let ((?x5512 (stack_t x_0 x_SSTORE_0 w_1 2 n)))
 (let ((?x3939 (stack_s x_0 x_SSTORE_0 w_1 6 n)))
 (let (($x11788 (= ?x3939 ?x5512)))
 (or (bvsle (sc_t 2) n) $x11788)))))
 ))
 (let ((?x4056 (sc_t 2)))
 (let ((?x926 (sc_s 6)))
 (let (($x9752 (= ?x926 ?x4056)))
 (let ((?x9766 (used_gas_t x_0 x_SSTORE_0 w_1 0)))
 (let ((?x6583 (used_gas_s x_0 x_SSTORE_0 w_1 0)))
 (let (($x11529 (= ?x6583 ?x9766)))
 (let (($x10623 (forall ((w (_ BitVec 256)) )(let ((?x8281 (storage_t x_0 x_SSTORE_0 w_1 0 w)))
 (let ((?x11292 (storage_s x_0 x_SSTORE_0 w_1 0 w)))
 (= ?x11292 ?x8281))))
 ))
 (let (($x56 (exc_halt_t 0)))
 (let (($x57 (exc_halt_s 0)))
 (let (($x58 (= $x57 $x56)))
 (let (($x1152 (forall ((n (_ BitVec 6)) )(let ((?x63 (sc_t 0)))
 (let (($x10780 (bvsle ?x63 n)))
 (let ((?x11194 (stack_t x_0 x_SSTORE_0 w_1 0 n)))
 (let ((?x148 (stack_s x_0 x_SSTORE_0 w_1 0 n)))
 (let (($x9192 (= ?x148 ?x11194)))
 (or $x9192 $x10780)))))))
 ))
 (let ((?x63 (sc_t 0)))
 (let ((?x72 (sc_s 0)))
 (let (($x73 (= ?x72 ?x63)))
 (let (($x5659 (= $x903 (or (exc_halt_t 1) (not (bvsle (_ bv0 6) (bvadd (_ bv62 6) (sc_t 1))))))))
 (let (($x5668 (forall ((n (_ BitVec 6)) )(let ((?x5310 (stack_t x_0 x_SSTORE_0 w_1 1 n)))
 (let ((?x5512 (stack_t x_0 x_SSTORE_0 w_1 2 n)))
 (or (= ?x5512 ?x5310) (bvsle (bvadd (_ bv62 6) (sc_t 1)) n)))))
 ))
 (let (($x10804 (= (stack_t x_0 x_SSTORE_0 w_1 1 (bvadd (_ bv62 6) (sc_t 1))) (_ bv0 256))))
 (let ((?x297 (storage_t x_0 x_SSTORE_0 w_1 1 (stack_t x_0 x_SSTORE_0 w_1 1 (bvadd (_ bv63 6) (sc_t 1))))))
 (let ((?x9100 (used_gas_t x_0 x_SSTORE_0 w_1 1)))
 (let ((?x5601 (+ ?x9100 (ite (= ?x297 (_ bv0 256)) (ite $x10804 5000 20000) (ite $x10804 (- 10000) 5000)))))
 (let (($x8567 (forall ((w (_ BitVec 256)) )(let ((?x9999 (storage_t x_0 x_SSTORE_0 w_1 1 w)))
 (let ((?x782 (ite (= w (stack_t x_0 x_SSTORE_0 w_1 1 (bvadd (_ bv63 6) (sc_t 1)))) (stack_t x_0 x_SSTORE_0 w_1 1 (bvadd (_ bv62 6) (sc_t 1))) ?x9999)))
 (let ((?x1744 (storage_t x_0 x_SSTORE_0 w_1 2 w)))
 (= ?x1744 ?x782)))))
 ))
 (let (($x1920 (exc_halt_t 1)))
 (let (($x10495 (= $x1920 (or $x56 (not (= ((_ extract 6 6) (bvadd (_ bv1 7) (concat (_ bv0 1) ?x63))) (_ bv0 1)))))))
 (let (($x3030 (forall ((w (_ BitVec 256)) )(let ((?x8281 (storage_t x_0 x_SSTORE_0 w_1 0 w)))
 (let ((?x9999 (storage_t x_0 x_SSTORE_0 w_1 1 w)))
 (= ?x9999 ?x8281))))
 ))
 (let (($x3110 (forall ((n (_ BitVec 6)) )(let ((?x11194 (stack_t x_0 x_SSTORE_0 w_1 0 n)))
 (let ((?x5310 (stack_t x_0 x_SSTORE_0 w_1 1 n)))
 (let ((?x63 (sc_t 0)))
 (let (($x10780 (bvsle ?x63 n)))
 (or $x10780 (= ?x5310 ?x11194)))))))
 ))
 (let (($x6016 (= $x772 (or (exc_halt_s 5) (not (bvsle (_ bv0 6) (bvadd (_ bv63 6) (sc_s 5))))))))
 (let (($x11532 (forall ((w (_ BitVec 256)) )(let ((?x7423 (storage_s x_0 x_SSTORE_0 w_1 5 w)))
 (let ((?x7383 (storage_s x_0 x_SSTORE_0 w_1 6 w)))
 (= ?x7383 ?x7423))))
 ))
 (let (($x8294 (forall ((n (_ BitVec 6)) )(let ((?x8528 (stack_s x_0 x_SSTORE_0 w_1 5 n)))
 (let ((?x3939 (stack_s x_0 x_SSTORE_0 w_1 6 n)))
 (or (= ?x3939 ?x8528) (bvsle (bvadd (_ bv63 6) (sc_s 5)) n)))))
 ))
 (let (($x11547 (= (used_gas_s x_0 x_SSTORE_0 w_1 6) (+ 2 (used_gas_s x_0 x_SSTORE_0 w_1 5)))))
 (let (($x3979 (exc_halt_s 5)))
 (let (($x3716 (= $x3979 (or (exc_halt_s 4) (not (bvsle (_ bv0 6) (bvadd (_ bv63 6) (sc_s 4))))))))
 (let (($x9127 (forall ((w (_ BitVec 256)) )(let ((?x11428 (storage_s x_0 x_SSTORE_0 w_1 4 w)))
 (let ((?x7423 (storage_s x_0 x_SSTORE_0 w_1 5 w)))
 (= ?x7423 ?x11428))))
 ))
 (let (($x9219 (forall ((n (_ BitVec 6)) )(let ((?x11575 (stack_s x_0 x_SSTORE_0 w_1 4 n)))
 (let ((?x8528 (stack_s x_0 x_SSTORE_0 w_1 5 n)))
 (or (bvsle (bvadd (_ bv63 6) (sc_s 4)) n) (= ?x8528 ?x11575)))))
 ))
 (let ((?x1987 (used_gas_s x_0 x_SSTORE_0 w_1 5)))
 (let (($x64 (exc_halt_s 4)))
 (let (($x6564 (= $x64 (or (exc_halt_s 3) (not (bvsle (_ bv0 6) (bvadd (_ bv62 6) (sc_s 3))))))))
 (let (($x7521 (forall ((n (_ BitVec 6)) )(let ((?x8923 (stack_s x_0 x_SSTORE_0 w_1 3 n)))
 (let ((?x11575 (stack_s x_0 x_SSTORE_0 w_1 4 n)))
 (or (= ?x11575 ?x8923) (bvsle (bvadd (_ bv62 6) (sc_s 3)) n)))))
 ))
 (let (($x11619 (= (stack_s x_0 x_SSTORE_0 w_1 3 (bvadd (_ bv62 6) (sc_s 3))) (_ bv0 256))))
 (let ((?x11472 (storage_s x_0 x_SSTORE_0 w_1 3 (stack_s x_0 x_SSTORE_0 w_1 3 (bvadd (_ bv63 6) (sc_s 3))))))
 (let ((?x9915 (used_gas_s x_0 x_SSTORE_0 w_1 3)))
 (let ((?x3353 (+ ?x9915 (ite (= ?x11472 (_ bv0 256)) (ite $x11619 5000 20000) (ite $x11619 (- 10000) 5000)))))
 (let ((?x1393 (used_gas_s x_0 x_SSTORE_0 w_1 4)))
 (let (($x282 (forall ((w (_ BitVec 256)) )(let ((?x11462 (storage_s x_0 x_SSTORE_0 w_1 3 w)))
 (let (($x6818 (= w (stack_s x_0 x_SSTORE_0 w_1 3 (bvadd (_ bv63 6) (sc_s 3))))))
 (let ((?x7957 (ite $x6818 (stack_s x_0 x_SSTORE_0 w_1 3 (bvadd (_ bv62 6) (sc_s 3))) ?x11462)))
 (let ((?x11428 (storage_s x_0 x_SSTORE_0 w_1 4 w)))
 (= ?x11428 ?x7957))))))
 ))
 (let (($x247 (exc_halt_s 2)))
 (let (($x8518 (or $x247 (not (= ((_ extract 6 6) (bvadd (_ bv1 7) (concat (_ bv0 1) (sc_s 2)))) (_ bv0 1))))))
 (let (($x292 (exc_halt_s 3)))
 (let (($x6106 (forall ((w (_ BitVec 256)) )(let ((?x11505 (storage_s x_0 x_SSTORE_0 w_1 2 w)))
 (let ((?x11462 (storage_s x_0 x_SSTORE_0 w_1 3 w)))
 (= ?x11462 ?x11505))))
 ))
 (let (($x10673 (forall ((n (_ BitVec 6)) )(let ((?x11500 (stack_s x_0 x_SSTORE_0 w_1 2 n)))
 (let ((?x8923 (stack_s x_0 x_SSTORE_0 w_1 3 n)))
 (or (= ?x8923 ?x11500) (bvsle (sc_s 2) n)))))
 ))
 (let (($x189 (exc_halt_s 1)))
 (let (($x4732 (or $x189 (not (= ((_ extract 6 6) (bvadd (_ bv1 7) (concat (_ bv0 1) (sc_s 1)))) (_ bv0 1))) (not (bvsle (_ bv0 6) (bvadd (_ bv62 6) (sc_s 1)))))))
 (let (($x11496 (forall ((w (_ BitVec 256)) )(let ((?x10667 (storage_s x_0 x_SSTORE_0 w_1 1 w)))
 (let ((?x11505 (storage_s x_0 x_SSTORE_0 w_1 2 w)))
 (= ?x11505 ?x10667))))
 ))
 (let (($x8383 (forall ((n (_ BitVec 6)) )(let ((?x5560 (stack_s x_0 x_SSTORE_0 w_1 1 n)))
 (let ((?x11500 (stack_s x_0 x_SSTORE_0 w_1 2 n)))
 (or (bvsle (bvadd (_ bv62 6) (sc_s 1)) n) (= ?x11500 ?x5560)))))
 ))
 (let ((?x6736 (used_gas_s x_0 x_SSTORE_0 w_1 2)))
 (let ((?x154 (sc_s 1)))
 (let ((?x2267 (bvadd (_ bv63 6) ?x154)))
 (let ((?x5155 (stack_s x_0 x_SSTORE_0 w_1 1 ?x2267)))
 (let ((?x5415 (bvadd (_ bv62 6) ?x154)))
 (let ((?x1200 (stack_s x_0 x_SSTORE_0 w_1 1 ?x5415)))
 (let (($x7048 (or $x57 (not (= ((_ extract 6 6) (bvadd (_ bv1 7) (concat (_ bv0 1) ?x72))) (_ bv0 1))) (not (bvsle (_ bv0 6) (bvadd (_ bv63 6) ?x72))))))
 (let (($x5961 (forall ((w (_ BitVec 256)) )(let ((?x11292 (storage_s x_0 x_SSTORE_0 w_1 0 w)))
 (let ((?x10667 (storage_s x_0 x_SSTORE_0 w_1 1 w)))
 (= ?x10667 ?x11292))))
 ))
 (let (($x1485 (forall ((n (_ BitVec 6)) )(let ((?x148 (stack_s x_0 x_SSTORE_0 w_1 0 n)))
 (let ((?x5560 (stack_s x_0 x_SSTORE_0 w_1 1 n)))
 (or (bvsle (bvadd (_ bv63 6) (sc_s 0)) n) (= ?x5560 ?x148)))))
 ))
 (let ((?x8369 (bvadd (_ bv63 6) ?x72)))
 (let ((?x4958 (stack_s x_0 x_SSTORE_0 w_1 0 ?x8369)))
 (let (($x8900 (forall ((w (_ BitVec 256)) )(let (($x6818 (= w (stack_s x_0 x_SSTORE_0 w_1 3 (bvadd (_ bv63 6) (sc_s 3))))))
 (let ((?x11292 (storage_s x_0 x_SSTORE_0 w_1 0 w)))
 (= ?x11292 (ite $x6818 x_SSTORE_0 (_ bv0 256))))))
 ))
 (let (($x8717 (= ?x6583 0)))
 (let (($x5726 (= (stack_s x_0 x_SSTORE_0 w_1 0 (_ bv0 6)) x_0)))
 (let (($x8685 (= ?x72 (_ bv1 6))))
 (and $x8685 $x5726 (not $x57) $x8717 $x8900 (= ?x5155 ?x4958) (= (stack_s x_0 x_SSTORE_0 w_1 1 ?x8369) ?x4958) (= (used_gas_s x_0 x_SSTORE_0 w_1 1) (+ 3 ?x6583)) (= ?x154 (bvadd (_ bv1 6) ?x72)) $x1485 $x5961 (= $x189 $x7048) (= (stack_s x_0 x_SSTORE_0 w_1 2 (bvadd (_ bv63 6) (sc_s 2))) ?x1200) (= (stack_s x_0 x_SSTORE_0 w_1 2 ?x5415) ?x1200) (= (stack_s x_0 x_SSTORE_0 w_1 2 ?x2267) ?x5155) (= ?x6736 (+ 3 (used_gas_s x_0 x_SSTORE_0 w_1 1))) (= (sc_s 2) (bvadd (_ bv1 6) ?x154)) $x8383 $x11496 (= $x247 $x4732) (= (stack_s x_0 x_SSTORE_0 w_1 3 (sc_s 2)) w_1) (= ?x9915 (+ 3 ?x6736)) (= (sc_s 3) (bvadd (_ bv1 6) (sc_s 2))) $x10673 $x6106 (= $x292 $x8518) $x282 (= ?x1393 ?x3353) (= (sc_s 4) (bvadd (_ bv62 6) (sc_s 3))) $x7521 $x6564 (= ?x1987 (+ 2 ?x1393)) (= (sc_s 5) (bvadd (_ bv63 6) (sc_s 4))) $x9219 $x9127 $x3716 $x11547 (= ?x926 (bvadd (_ bv63 6) (sc_s 5))) $x8294 $x11532 $x6016 (= (stack_t x_0 x_SSTORE_0 w_1 1 ?x63) w_1) (= ?x9100 (+ 3 ?x9766)) (= (sc_t 1) (bvadd (_ bv1 6) ?x63)) $x3110 $x3030 $x10495 $x8567 (= (used_gas_t x_0 x_SSTORE_0 w_1 2) ?x5601) (= ?x4056 (bvadd (_ bv62 6) (sc_t 1))) $x5668 $x5659 $x73 $x1152 $x58 $x10623 $x11529 (not (and $x9752 $x3903 $x8576 $x8476))))))))))))))))))))))))))))))))))))))))))))))))))))))))))))))))))))))))))))
 )
(check-sat)
(get-proof)
